c FILE: i160-115

c SOURCE: From steinlib

c DESCRIPTION: Steinlib instance with 160 nodes and 812 edges.

p edge 160 812
e 1 2
e 1 11
e 1 44
e 1 47
e 1 56
e 1 59
e 1 61
e 1 81
e 1 98
e 1 99
e 1 110
e 1 113
e 1 115
e 1 128
e 1 144
e 2 10
e 2 20
e 2 28
e 2 45
e 2 61
e 2 63
e 2 73
e 2 80
e 2 114
e 2 115
e 2 118
e 2 157
e 3 14
e 3 35
e 3 40
e 3 42
e 3 101
e 3 106
e 3 160
e 4 15
e 4 32
e 4 40
e 4 43
e 4 59
e 4 70
e 4 71
e 4 80
e 4 83
e 4 90
e 4 91
e 4 93
e 4 95
e 4 128
e 4 136
e 4 150
e 5 11
e 5 14
e 5 33
e 5 44
e 5 73
e 5 78
e 5 91
e 5 118
e 5 123
e 6 14
e 6 32
e 6 38
e 6 48
e 6 86
e 6 110
e 7 8
e 7 9
e 7 17
e 7 51
e 7 59
e 7 105
e 7 110
e 7 136
e 8 15
e 8 26
e 8 33
e 8 60
e 8 66
e 8 108
e 8 138
e 9 40
e 9 53
e 9 66
e 9 96
e 9 135
e 9 138
e 10 22
e 10 25
e 10 32
e 10 52
e 10 53
e 10 62
e 10 109
e 10 114
e 10 116
e 10 123
e 10 125
e 10 127
e 11 42
e 11 45
e 11 48
e 11 64
e 11 96
e 11 133
e 11 140
e 11 158
e 11 159
e 12 22
e 12 42
e 12 54
e 12 55
e 12 72
e 12 96
e 12 126
e 12 129
e 12 141
e 12 156
e 13 22
e 13 23
e 13 68
e 13 70
e 13 74
e 13 78
e 13 86
e 13 94
e 13 120
e 13 128
e 13 137
e 13 148
e 13 154
e 14 19
e 14 49
e 14 67
e 14 97
e 14 155
e 14 158
e 15 18
e 15 44
e 15 59
e 15 60
e 15 61
e 15 74
e 15 81
e 15 84
e 15 89
e 15 90
e 15 99
e 15 103
e 15 118
e 15 124
e 15 136
e 15 145
e 15 149
e 16 23
e 16 24
e 16 44
e 16 45
e 16 56
e 16 72
e 16 86
e 16 93
e 16 102
e 16 120
e 16 132
e 16 150
e 17 21
e 17 34
e 17 42
e 17 50
e 17 54
e 17 59
e 17 74
e 17 76
e 17 118
e 17 133
e 17 151
e 17 155
e 18 49
e 18 50
e 18 100
e 18 107
e 18 124
e 18 133
e 18 160
e 19 56
e 19 87
e 19 112
e 19 120
e 19 137
e 19 142
e 19 155
e 20 38
e 20 47
e 20 50
e 20 72
e 20 75
e 20 76
e 20 77
e 20 103
e 20 110
e 20 112
e 20 125
e 20 138
e 21 23
e 21 27
e 21 29
e 21 35
e 21 39
e 21 63
e 21 95
e 21 97
e 21 102
e 21 117
e 21 123
e 21 146
e 22 59
e 22 70
e 22 104
e 22 110
e 22 111
e 22 135
e 22 158
e 23 29
e 23 66
e 23 86
e 23 127
e 24 32
e 24 39
e 24 41
e 24 54
e 24 62
e 24 64
e 24 84
e 24 88
e 24 145
e 25 49
e 25 66
e 25 78
e 25 79
e 25 82
e 25 95
e 25 114
e 25 138
e 25 143
e 25 152
e 26 42
e 26 77
e 26 88
e 26 91
e 26 119
e 26 130
e 27 55
e 27 60
e 27 61
e 27 64
e 27 75
e 27 93
e 27 97
e 27 139
e 28 31
e 28 54
e 28 88
e 28 96
e 28 103
e 28 137
e 28 159
e 29 36
e 29 43
e 29 63
e 29 69
e 29 103
e 29 122
e 29 149
e 29 157
e 29 160
e 30 90
e 30 96
e 30 110
e 30 116
e 30 132
e 30 136
e 31 33
e 31 36
e 31 60
e 31 66
e 31 78
e 31 84
e 32 33
e 32 40
e 32 58
e 32 74
e 32 79
e 32 110
e 32 128
e 32 137
e 32 139
e 32 151
e 32 152
e 33 60
e 33 64
e 33 79
e 33 122
e 33 137
e 33 146
e 33 156
e 34 49
e 34 85
e 34 86
e 34 106
e 34 111
e 34 137
e 34 154
e 35 57
e 35 83
e 35 104
e 35 106
e 35 107
e 35 136
e 36 50
e 36 74
e 36 83
e 36 85
e 36 100
e 36 116
e 36 149
e 36 153
e 37 52
e 37 58
e 37 81
e 37 89
e 37 104
e 37 113
e 37 147
e 38 85
e 38 96
e 38 103
e 38 118
e 38 140
e 38 141
e 38 151
e 39 59
e 39 60
e 39 67
e 39 74
e 39 105
e 39 147
e 39 149
e 39 153
e 40 47
e 40 51
e 40 54
e 40 59
e 40 75
e 40 88
e 40 114
e 40 134
e 40 142
e 40 153
e 40 156
e 41 57
e 41 65
e 41 66
e 41 73
e 41 80
e 41 92
e 41 97
e 41 106
e 41 160
e 42 44
e 42 67
e 42 79
e 42 105
e 42 116
e 42 124
e 42 135
e 43 47
e 43 50
e 43 63
e 43 82
e 43 87
e 43 98
e 43 103
e 43 115
e 43 116
e 43 120
e 43 141
e 44 66
e 44 67
e 44 70
e 44 82
e 44 98
e 44 113
e 44 118
e 44 150
e 45 46
e 45 48
e 45 76
e 45 79
e 45 91
e 45 118
e 45 132
e 46 59
e 46 65
e 46 86
e 46 127
e 46 135
e 46 154
e 47 59
e 47 61
e 47 69
e 47 76
e 47 93
e 47 94
e 47 95
e 47 102
e 47 132
e 47 136
e 47 157
e 47 158
e 48 52
e 48 61
e 48 85
e 48 117
e 49 99
e 49 102
e 49 103
e 49 137
e 49 143
e 50 57
e 50 67
e 50 76
e 50 86
e 50 108
e 50 139
e 50 140
e 50 150
e 51 52
e 51 62
e 51 74
e 51 84
e 51 89
e 51 100
e 51 101
e 51 106
e 51 114
e 51 120
e 52 73
e 52 76
e 52 111
e 52 124
e 52 133
e 53 63
e 53 66
e 53 72
e 53 73
e 53 131
e 53 134
e 53 140
e 53 147
e 54 67
e 54 74
e 54 92
e 54 105
e 54 114
e 54 117
e 54 133
e 54 140
e 54 149
e 54 155
e 55 79
e 55 87
e 55 113
e 55 130
e 55 149
e 55 154
e 56 76
e 56 127
e 56 133
e 56 136
e 57 61
e 57 63
e 57 73
e 57 87
e 57 137
e 57 145
e 57 149
e 58 62
e 58 76
e 58 107
e 58 112
e 58 115
e 58 121
e 58 122
e 58 135
e 58 156
e 58 160
e 59 84
e 59 86
e 59 93
e 59 98
e 59 123
e 59 134
e 59 137
e 59 141
e 59 143
e 60 90
e 60 97
e 60 118
e 60 129
e 60 132
e 60 134
e 60 138
e 60 145
e 60 154
e 60 158
e 61 68
e 61 73
e 61 74
e 61 76
e 61 108
e 61 112
e 61 118
e 61 130
e 61 135
e 61 137
e 62 82
e 62 94
e 62 98
e 62 113
e 63 73
e 63 103
e 63 142
e 64 79
e 64 92
e 64 93
e 64 95
e 64 108
e 64 120
e 64 122
e 64 133
e 65 102
e 65 120
e 65 130
e 65 133
e 65 138
e 66 92
e 66 93
e 66 142
e 66 144
e 66 152
e 66 156
e 66 159
e 67 75
e 67 104
e 67 109
e 67 139
e 67 156
e 68 76
e 68 113
e 68 115
e 68 116
e 68 136
e 68 144
e 69 73
e 69 99
e 69 129
e 69 132
e 69 133
e 69 138
e 69 139
e 70 76
e 70 91
e 70 122
e 70 138
e 71 88
e 71 120
e 71 128
e 71 129
e 71 135
e 71 142
e 71 145
e 72 139
e 72 152
e 72 158
e 72 159
e 73 111
e 73 160
e 74 94
e 74 110
e 74 160
e 75 76
e 75 92
e 75 99
e 75 101
e 75 151
e 75 158
e 76 89
e 76 102
e 76 110
e 76 121
e 76 147
e 77 79
e 77 90
e 77 121
e 77 158
e 78 84
e 78 95
e 78 97
e 78 102
e 78 111
e 78 115
e 78 146
e 78 150
e 79 109
e 79 125
e 79 127
e 79 131
e 80 93
e 80 96
e 80 97
e 80 100
e 80 101
e 80 111
e 80 119
e 80 122
e 80 142
e 81 88
e 81 93
e 81 94
e 81 135
e 81 141
e 82 130
e 82 132
e 82 144
e 82 148
e 83 85
e 83 100
e 83 119
e 83 121
e 83 123
e 83 139
e 84 100
e 84 108
e 84 126
e 84 131
e 84 155
e 85 115
e 85 146
e 86 88
e 86 104
e 86 148
e 86 156
e 87 96
e 87 105
e 87 132
e 87 153
e 88 99
e 88 107
e 88 122
e 89 154
e 89 159
e 90 117
e 90 146
e 91 94
e 91 99
e 91 139
e 91 156
e 92 108
e 92 124
e 92 126
e 92 148
e 93 102
e 93 115
e 93 142
e 93 144
e 93 145
e 93 149
e 93 157
e 94 103
e 94 120
e 94 143
e 94 147
e 95 96
e 95 105
e 95 112
e 95 124
e 95 126
e 95 133
e 96 117
e 96 142
e 96 147
e 97 106
e 97 116
e 97 117
e 97 134
e 97 140
e 98 108
e 98 109
e 98 124
e 98 129
e 99 117
e 99 137
e 99 140
e 100 117
e 100 121
e 100 132
e 101 122
e 101 125
e 101 149
e 101 150
e 101 157
e 102 124
e 103 121
e 103 122
e 103 146
e 103 151
e 104 108
e 104 124
e 104 136
e 104 155
e 105 114
e 105 119
e 105 145
e 105 154
e 105 155
e 105 159
e 106 109
e 106 121
e 108 132
e 108 135
e 109 134
e 109 140
e 109 146
e 109 160
e 110 140
e 110 145
e 111 116
e 111 121
e 111 147
e 111 149
e 111 160
e 112 114
e 112 128
e 112 138
e 112 140
e 112 145
e 112 149
e 113 117
e 113 129
e 113 148
e 113 153
e 114 159
e 115 138
e 116 127
e 116 149
e 116 159
e 117 119
e 117 123
e 117 150
e 118 123
e 118 131
e 118 144
e 119 135
e 119 138
e 119 143
e 119 156
e 120 124
e 120 150
e 121 132
e 121 133
e 121 137
e 121 144
e 121 149
e 122 124
e 123 130
e 123 146
e 125 155
e 125 159
e 126 138
e 127 143
e 127 145
e 128 156
e 129 131
e 129 138
e 129 144
e 130 139
e 130 150
e 130 151
e 131 138
e 131 142
e 131 143
e 131 144
e 131 157
e 132 134
e 132 137
e 132 147
e 133 138
e 133 151
e 139 140
e 139 143
e 139 149
e 139 152
e 143 149
e 144 147
e 146 157
e 147 154
e 148 157
e 149 153
e 152 160
e 155 157
e 156 157
e 156 160
